50
150
99
98
97
95
90
87
87
85
85
83
80
80
76
71
71
70
69
68
67
66
65
63
63
62
62
60
60
60
58
56
55
53
50
49
45
42
42
41
38
36
36
34
34
33
32
32
31
31
31
30
